NAME : amz3050.1599961_99961.tour
COMMENT : Cost = 1599961_99961
COMMENT : Found by LKH-AMZ [Keld Helsgaun] Sun May 11 14:22:35 2025
COMMENT : TW viol.: 0 #: 0
TYPE : TOUR
DIMENSION : 173
TOUR_SECTION
143
77
102
47
149
78
85
14
119
116
25
159
168
66
99
39
12
120
6
34
24
11
88
55
139
90
114
124
150
56
71
169
104
41
100
45
129
125
76
64
103
144
152
28
98
136
31
87
51
165
161
148
97
113
17
16
19
13
173
7
38
73
20
70
52
49
37
140
145
72
151
166
54
79
147
53
30
131
172
44
89
133
112
15
29
65
109
60
101
106
23
118
153
75
160
43
68
107
146
122
69
46
158
83
135
81
92
84
138
111
117
5
42
170
142
96
93
164
127
27
22
121
130
63
162
1
132
167
18
58
50
10
74
33
40
36
48
163
91
128
59
108
156
35
123
62
155
57
171
80
67
21
95
2
82
9
126
105
110
86
157
94
141
134
137
3
61
8
154
32
4
26
115
-1
EOF
